RAW/XX/fspd/X-n134-k13.vrp_seed-3.out
8177	12.944	32.401
