RAW/XX/fspd/X-n134-k13.vrp_seed-3.sol
Route #1: 78 74 38 50 35 26 54 110 123 56 87 109 132
Route #2: 83
Route #3: 122 69 1 49 71 61 57 119 92 31 115 76
Route #4: 17 19 80 82 133 85 106 46 21 45 66 53 23 30 68 7 121 5 97 13 96 59 18 73 39
Route #5: 100 128 125 127 114 11 131 52 105 41 34 58 60 95 40
Route #6: 130 3 72 86 33 124 12 29 25 2 9 47 16 51 14 91 118
Route #7: 101 112 48 64 117 79 120 111 104 99 36 43 90 108 113 89 116 129
Route #8: 103 10 62 32 24 37 88 102 94 93 42 65 98 75 28 20 67 126 55 22 27 4 70 44 8 107 84 81 15 63 77 6
Cost 8177.000000